Problem:    
Rows:       260
Columns:    89 (72 integer, 72 binary)
Non-zeros:  974
Status:     INTEGER OPTIMAL
Objective:  value = 3.70484 (MINimum)

   No.   Row name        Activity     Lower bound   Upper bound
------ ------------    ------------- ------------- -------------
     1 r.5                    1003.7             0               
     2 r.6                  -999.043      -999.287               
     3 r.7                   3.70484             0               
     4 r.8                  -995.932      -995.972               
     5 r.9                    1003.7             0               
     6 r.10                 -998.331      -999.288               
     7 r.11                  3.70484             0               
     8 r.12                  2.74773      -995.921               
     9 r.13                   1003.7             0               
    10 r.14                  -999.88       -999.92               
    11 r.15                  3.70484             0               
    12 r.16                  1.97753      -998.606               
    13 r.17                   1003.7             0               
    14 r.18                 -999.756      -999.876               
    15 r.19                  3.70484             0               
    16 r.20                  2.74773      -997.924               
    17 r.21                   1003.7             0               
    18 r.22                 -998.022      -999.692               
    19 r.23                  3.70484             0               
    20 r.24                  1.97753      -997.802               
    21 r.25                   1003.7             0               
    22 r.26                  -999.96       -999.96               
    23 r.27                  3.70484             0               
    24 r.28                 0.039998      -999.132               
    25 r.29                   1003.7             0               
    26 r.30                 -996.295      -999.043               
    27 r.31                  3.70484             0               
    28 r.32                  3.70484      -998.641               
    29 r.33                   1003.7             0               
    30 r.34                 -997.252       -999.23               
    31 r.35                  3.70484             0               
    32 r.36                  3.70484      -998.968               
    33 r.37                        1             1             = 
    34 r.38                        1             1             = 
    35 r.39                        1             1             = 
    36 r.40                        1             1             = 
    37 r.41                        1             1             = 
    38 r.42                        1             1             = 
    39 r.43                        1             1             = 
    40 r.44                        1             1             = 
    41 r.45                        2             2               
    42 r.46                       -2         -1001               
    43 r.47                 -999.288      -999.288               
    44 r.48                     1000             2               
    45 r.49                    -1000         -1001               
    46 r.50                  2998.68      -995.921               
    47 r.51                        2             2               
    48 r.52                       -2         -1001               
    49 r.53                -0.837842       -999.92               
    50 r.54                     1000             2               
    51 r.55                    -1000         -1001               
    52 r.56                  2997.91      -998.606               
    53 r.57                        2             2               
    54 r.58                       -2         -1001               
    55 r.59                -0.713432      -999.876               
    56 r.60                     1000             2               
    57 r.61                    -1000         -1001               
    58 r.62                  2998.68      -997.924               
    59 r.63                        2             2               
    60 r.64                       -2         -1001               
    61 r.65                  -998.98      -999.692               
    62 r.66                     1000             2               
    63 r.67                    -1000         -1001               
    64 r.68                  2997.91      -997.802               
    65 r.69                 -999.083      -999.287               
    66 r.70                 -995.972      -995.972               
    67 r.71                 -999.083      -999.287               
    68 r.72                 -995.972      -995.972               
    69 r.73                 -997.253      -999.043               
    70 r.74                  2.74744      -998.641               
    71 r.75                -0.363341      -999.043               
    72 r.76                  999.637      -998.641               
    73 r.77                  -998.21       -999.23               
    74 r.78                  2.74744      -998.968               
    75 r.79                 -1.32045       -999.23               
    76 r.80                  999.637      -998.968               
    77 r.81                        2             2               
    78 r.82                       -2         -1001               
    79 r.83                  999.288      0.713433               
    80 r.84                     1000             2               
    81 r.85                    -1000         -1001               
    82 r.86                  1001.32       4.02818               
    83 r.87                        2             2               
    84 r.88                       -2         -1001               
    85 r.89                 -1.54963       -999.92               
    86 r.90                     1000             2               
    87 r.91                    -1000         -1001               
    88 r.92                  1999.23      -998.606               
    89 r.93                        2             2               
    90 r.94                       -2         -1001               
    91 r.95                 -1.42522      -999.876               
    92 r.96                     1000             2               
    93 r.97                    -1000         -1001               
    94 r.98                     2000      -997.924               
    95 r.99                        2             2               
    96 r.100                      -2         -1001               
    97 r.101                -999.692      -999.692               
    98 r.102                    1000             2               
    99 r.103                   -1000         -1001               
   100 r.104                 1999.23      -997.802               
   101 r.105                -998.371      -999.288               
   102 r.106                 2.70773      -995.921               
   103 r.107                -998.371      -999.288               
   104 r.108                 2.70773      -995.921               
   105 r.109                -997.964      -999.043               
   106 r.110                 2.03566      -998.641               
   107 r.111                -999.043      -999.043               
   108 r.112                0.957111      -998.641               
   109 r.113                       2             2               
   110 r.114                      -2         -1001               
   111 r.115                -998.921       -999.23               
   112 r.116                    1000             2               
   113 r.117                   -1000         -1001               
   114 r.118                 2000.96      -998.968               
   115 r.119                       2             2               
   116 r.120                      -2         -1001               
   117 r.121                0.837844      0.713433               
   118 r.122                    1000             2               
   119 r.123                   -1000         -1001               
   120 r.124                 1002.09       4.02818               
   121 r.125                       2             2               
   122 r.126                      -2         -1001               
   123 r.127                 1.54963      0.711789               
   124 r.128                    1000             2               
   125 r.129                   -1000         -1001               
   126 r.130                 2000.77       4.07871               
   127 r.131                       2             2               
   128 r.132                      -2         -1001               
   129 r.133                -999.876      -999.876               
   130 r.134                    1000             2               
   131 r.135                   -1000         -1001               
   132 r.136                 2000.77      -997.924               
   133 r.137                       2             2               
   134 r.138                      -2         -1001               
   135 r.139                -998.142      -999.692               
   136 r.140                    1000             2               
   137 r.141                   -1000         -1001               
   138 r.142                    2000      -997.802               
   139 r.143                 -999.92       -999.92               
   140 r.144                 1.93753      -998.606               
   141 r.145                 -999.92       -999.92               
   142 r.146                 1.93753      -998.606               
   143 r.147                -996.415      -999.043               
   144 r.148                 3.58529      -998.641               
   145 r.149                -998.273      -999.043               
   146 r.150                 1.72731      -998.641               
   147 r.151                -997.372       -999.23               
   148 r.152                 3.58529      -998.968               
   149 r.153                 -999.23       -999.23               
   150 r.154                 1.72731      -998.968               
   151 r.155                       2             2               
   152 r.156                      -2         -1001               
   153 r.157                0.713433      0.713433               
   154 r.158                    1000             2               
   155 r.159                   -1000         -1001               
   156 r.160                 1001.32       4.02818               
   157 r.161                       2             2               
   158 r.162                      -2         -1001               
   159 r.163                 1.42522      0.711789               
   160 r.164                    1000             2               
   161 r.165                   -1000         -1001               
   162 r.166                    2000       4.07871               
   163 r.167                       2             2               
   164 r.168                      -2         -1001               
   165 r.169                 999.876      0.079556               
   166 r.170                    1000             2               
   167 r.171                   -1000         -1001               
   168 r.172                 1999.23       1.39438               
   169 r.173                       2             2               
   170 r.174                      -2         -1001               
   171 r.175                -998.266      -999.692               
   172 r.176                    1000             2               
   173 r.177                   -1000         -1001               
   174 r.178                 1999.23      -997.802               
   175 r.179                -999.796      -999.876               
   176 r.180                 2.70773      -997.924               
   177 r.181                -999.796      -999.876               
   178 r.182                 2.70773      -997.924               
   179 r.183                -996.539      -999.043               
   180 r.184                 3.46088      -998.641               
   181 r.185                -999.043      -999.043               
   182 r.186                0.957111      -998.641               
   183 r.187                       2             2               
   184 r.188                      -2         -1001               
   185 r.189                -997.496       -999.23               
   186 r.190                    1000             2               
   187 r.191                   -1000         -1001               
   188 r.192                 2000.96      -998.968               
   189 r.193                       2             2               
   190 r.194                      -2         -1001               
   191 r.195                  998.98      0.713433               
   192 r.196                    1000             2               
   193 r.197                   -1000         -1001               
   194 r.198                 1002.09       4.02818               
   195 r.199                       2             2               
   196 r.200                      -2         -1001               
   197 r.201                 999.692      0.711789               
   198 r.202                    1000             2               
   199 r.203                   -1000         -1001               
   200 r.204                 2000.77       4.07871               
   201 r.205                       2             2               
   202 r.206                      -2         -1001               
   203 r.207                 998.142      0.079556               
   204 r.208                    1000             2               
   205 r.209                   -1000         -1001               
   206 r.210                    2000       1.39438               
   207 r.211                       2             2               
   208 r.212                      -2         -1001               
   209 r.213                 998.266      0.124411               
   210 r.214                    1000             2               
   211 r.215                   -1000         -1001               
   212 r.216                 2000.77       2.07618               
   213 r.217                -998.062      -999.692               
   214 r.218                 1.93753      -997.802               
   215 r.219                -998.062      -999.692               
   216 r.220                 1.93753      -997.802               
   217 r.221                       2             2               
   218 r.222                      -2         -1001               
   219 r.223                -998.273      -999.043               
   220 r.224                    1000             2               
   221 r.225                   -1000         -1001               
   222 r.226                 2001.73      -998.641               
   223 r.227                 -999.23       -999.23               
   224 r.228                 1.72731      -998.968               
   225 r.229                 -999.23       -999.23               
   226 r.230                 1.72731      -998.968               
   227 r.231                -996.335      -999.043               
   228 r.232                 3.66484      -998.641               
   229 r.233                -996.335      -999.043               
   230 r.234                 3.66484      -998.641               
   231 r.235                       2             2               
   232 r.236                      -2         -1001               
   233 r.237                 998.273      0.308344               
   234 r.238                    1000             2               
   235 r.239                   -1000         -1001               
   236 r.240                 1998.27       2.19845               
   237 r.241                       2             2               
   238 r.242                      -2         -1001               
   239 r.243               -0.957111       -999.23               
   240 r.244                    1000             2               
   241 r.245                   -1000         -1001               
   242 r.246                    2000      -998.968               
   243 r.247                       2             2               
   244 r.248                      -2         -1001               
   245 r.249                 998.921      0.711789               
   246 r.250                    1000             2               
   247 r.251                   -1000         -1001               
   248 r.252                 1999.04       4.07871               
   249 r.253                       2             2               
   250 r.254                      -2         -1001               
   251 r.255                 997.496      0.124411               
   252 r.256                    1000             2               
   253 r.257                   -1000         -1001               
   254 r.258                 1999.04       2.07618               
   255 r.259                       2             2               
   256 r.260                      -2         -1001               
   257 r.261                0.957111      0.957111               
   258 r.262                    1000             2               
   259 r.263                   -1000         -1001               
   260 r.264                    2000         1.359               

   No. Column name       Activity     Lower bound   Upper bound
------ ------------    ------------- ------------- -------------
     1 tt                    3.70484             0               
     2 s_1_1        *              1             0             1 
     3 t_1_1                 2.74744             0               
     4 s_1_8        *              1             0             1 
     5 s_1_7        *              1             0             1 
     6 s_2_1        *              0             0             1 
     7 t_2_1                 999.637             0               
     8 s_2_8        *              0             0             1 
     9 s_2_7        *              0             0             1 
    10 s_1_2        *              1             0             1 
    11 t_1_2                 2.03566             0               
    12 s_2_2        *              0             0             1 
    13 t_2_2                0.957111             0               
    14 s_1_3        *              1             0             1 
    15 t_1_3                 3.58529             0               
    16 s_2_3        *              0             0             1 
    17 t_2_3                 1.72731             0               
    18 s_1_4        *              1             0             1 
    19 t_1_4                 3.46088             0               
    20 s_2_4        *              0             0             1 
    21 t_2_4                0.957111             0               
    22 s_1_5        *              1             0             1 
    23 t_1_5                 1.72731             0               
    24 s_2_5        *              0             0             1 
    25 t_2_5                 1.72731             0               
    26 s_1_6        *              1             0             1 
    27 t_1_6                 3.66484             0               
    28 s_2_6        *              0             0             1 
    29 t_2_6                 3.66484             0               
    30 t_1_7                       0             0               
    31 t_2_7                       0             0               
    32 t_1_8                0.957111             0               
    33 t_2_8                       0             0               
    34 r_1_1_2      *              0             0             1 
    35 u_1_1_2      *              1             0             1 
    36 r_2_1_2      *              1             0             1 
    37 u_2_1_2      *              0             0             1 
    38 r_1_1_3      *              0             0             1 
    39 u_1_1_3      *              0             0             1 
    40 r_2_1_3      *              1             0             1 
    41 u_2_1_3      *              0             0             1 
    42 r_1_1_4      *              0             0             1 
    43 u_1_1_4      *              0             0             1 
    44 r_2_1_4      *              1             0             1 
    45 u_2_1_4      *              0             0             1 
    46 r_1_1_5      *              0             0             1 
    47 u_1_1_5      *              1             0             1 
    48 r_2_1_5      *              1             0             1 
    49 u_2_1_5      *              0             0             1 
    50 r_1_2_3      *              0             0             1 
    51 u_1_2_3      *              0             0             1 
    52 r_2_2_3      *              1             0             1 
    53 u_2_2_3      *              0             0             1 
    54 r_1_2_4      *              0             0             1 
    55 u_1_2_4      *              0             0             1 
    56 r_2_2_4      *              1             0             1 
    57 u_2_2_4      *              0             0             1 
    58 r_1_2_5      *              0             0             1 
    59 u_1_2_5      *              1             0             1 
    60 r_2_2_5      *              1             0             1 
    61 u_2_2_5      *              0             0             1 
    62 r_1_2_8      *              0             0             1 
    63 u_1_2_8      *              1             0             1 
    64 r_2_2_8      *              1             0             1 
    65 u_2_2_8      *              0             0             1 
    66 r_1_3_4      *              0             0             1 
    67 u_1_3_4      *              1             0             1 
    68 r_2_3_4      *              1             0             1 
    69 u_2_3_4      *              0             0             1 
    70 r_1_3_5      *              0             0             1 
    71 u_1_3_5      *              1             0             1 
    72 r_2_3_5      *              1             0             1 
    73 u_2_3_5      *              0             0             1 
    74 r_1_4_5      *              0             0             1 
    75 u_1_4_5      *              1             0             1 
    76 r_2_4_5      *              1             0             1 
    77 u_2_4_5      *              0             0             1 
    78 r_1_4_8      *              0             0             1 
    79 u_1_4_8      *              1             0             1 
    80 r_2_4_8      *              1             0             1 
    81 u_2_4_8      *              0             0             1 
    82 r_1_5_7      *              0             0             1 
    83 u_1_5_7      *              1             0             1 
    84 r_2_5_7      *              1             0             1 
    85 u_2_5_7      *              0             0             1 
    86 r_1_7_8      *              0             0             1 
    87 u_1_7_8      *              0             0             1 
    88 r_2_7_8      *              1             0             1 
    89 u_2_7_8      *              0             0             1 

Integer feasibility conditions:

KKT.PE: max.abs.err = 4.55e-13 on row 46
        max.rel.err = 1.13e-16 on row 22
        High quality

KKT.PB: max.abs.err = 1.14e-13 on row 139
        max.rel.err = 1.14e-16 on row 139
        High quality

End of output
